Academic license - for non-commercial use only - expires 2022-05-16
Using license file C:\Users\kenne\gurobi.lic
Parameter OutputFlag unchanged
   Value: 1  Min: 0  Max: 1  Default: 1
Changed value of parameter QCPDual to 1
   Prev: 0  Min: 0  Max: 1  Default: 0
Gurobi Optimizer version 9.1.1 build v9.1.1rc0 (win64)
Thread count: 6 physical cores, 12 logical processors, using up to 12 threads
Optimize a model with 97021 rows, 442 columns and 291501 nonzeros
Model fingerprint: 0x0f5dcb8e
Variable types: 1 continuous, 441 integer (441 binary)
Coefficient statistics:
  Matrix range     [1e+00, 3e+00]
  Objective range  [1e+00, 1e+00]
  Bounds range     [1e+00, 1e+00]
  RHS range        [4e+00, 8e+00]
Found heuristic solution: objective -0.0102207
Found heuristic solution: objective -0.3238611
Presolve time: 0.60s
Presolved: 97021 rows, 442 columns, 291501 nonzeros
Variable types: 1 continuous, 441 integer (441 binary)

Starting sifting (using dual simplex for sub-problems)...

    Iter     Pivots    Primal Obj      Dual Obj        Time
       0         23    -infinity     -4.4063741e+00      1s
       1        175  -5.5740346e+00  -4.5990749e+00      1s
       2        417  -5.5740346e+00  -5.2559733e+00      1s
       3        789  -5.5733762e+00  -5.2703654e+00      1s
       4       1275  -5.5733762e+00  -5.3032345e+00      1s
       5       1766  -5.5733762e+00  -5.3158716e+00      1s
       6       2367  -5.5733762e+00  -5.3421223e+00      1s
       7       2989  -5.5733762e+00  -5.3535018e+00      1s
       8       3686  -5.5733762e+00  -5.3809245e+00      1s

Sifting complete


Root relaxation: objective -5.552399e+00, 14706 iterations, 0.76 seconds

    Nodes    |    Current Node    |     Objective Bounds      |     Work
 Expl Unexpl |  Obj  Depth IntInf | Incumbent    BestBd   Gap | It/Node Time

     0     0   -5.55240    0  438   -0.32386   -5.55240  1614%     -    2s
H    0     0                      -0.8657516   -5.55240   541%     -    2s
     0     0   -5.53757    0  428   -0.86575   -5.53757   540%     -    7s
H    0     0                      -0.8795572   -5.53757   530%     -    8s
     0     0   -5.52785    0  422   -0.87956   -5.52785   528%     -   10s
     0     0   -5.51881    0  412   -0.87956   -5.51881   527%     -   13s
H    0     0                      -0.9426963   -5.51881   485%     -   14s
     0     0   -5.50893    0  385   -0.94270   -5.50893   484%     -   14s
     0     0   -5.49329    0  377   -0.94270   -5.49329   483%     -   19s
H    0     0                      -0.9705000   -5.49329   466%     -   19s
H    0     0                      -1.0194044   -5.49329   439%     -   19s
     0     0   -5.48478    0  363   -1.01940   -5.48478   438%     -   20s
     0     0   -5.47838    0  381   -1.01940   -5.47838   437%     -   22s
     0     0   -5.47440    0  360   -1.01940   -5.47440   437%     -   23s
     0     0   -5.47162    0  360   -1.01940   -5.47162   437%     -   24s
     0     0   -5.46836    0  359   -1.01940   -5.46836   436%     -   25s
     0     0   -5.46795    0  346   -1.01940   -5.46795   436%     -   27s
     0     0   -5.46439    0  338   -1.01940   -5.46439   436%     -   27s
     0     0   -5.46422    0  339   -1.01940   -5.46422   436%     -   29s
     0     0   -5.46417    0  338   -1.01940   -5.46417   436%     -   29s
     0     0   -5.46402    0  319   -1.01940   -5.46402   436%     -   31s
     0     0   -5.45935    0  314   -1.01940   -5.45935   436%     -   31s
     0     0   -5.45911    0  315   -1.01940   -5.45911   436%     -   33s
     0     0   -5.45895    0  315   -1.01940   -5.45895   436%     -   33s
     0     0   -5.45894    0  311   -1.01940   -5.45894   436%     -   35s
H    0     0                      -1.0363458   -5.45894   427%     -   35s
     0     0   -5.45893    0  312   -1.03635   -5.45893   427%     -   35s
     0     0   -5.45880    0  301   -1.03635   -5.45880   427%     -   37s
     0     0   -5.45518    0  300   -1.03635   -5.45518   426%     -   38s
     0     0   -5.45508    0  297   -1.03635   -5.45508   426%     -   39s
     0     0   -5.45504    0  298   -1.03635   -5.45504   426%     -   39s
     0     0   -5.45501    0  289   -1.03635   -5.45501   426%     -   41s
     0     0   -5.45218    0  283   -1.03635   -5.45218   426%     -   42s
     0     0   -5.45198    0  286   -1.03635   -5.45198   426%     -   43s
     0     0   -5.45187    0  288   -1.03635   -5.45187   426%     -   44s
     0     0   -5.45180    0  288   -1.03635   -5.45180   426%     -   45s
     0     0   -5.45172    0  286   -1.03635   -5.45172   426%     -   46s
     0     0   -5.45167    0  283   -1.03635   -5.45167   426%     -   47s
     0     0   -5.45161    0  285   -1.03635   -5.45161   426%     -   47s
     0     0   -5.45157    0  275   -1.03635   -5.45157   426%     -   49s
     0     0   -5.44696    0  271   -1.03635   -5.44696   426%     -   50s
     0     0   -5.44675    0  272   -1.03635   -5.44675   426%     -   51s
     0     0   -5.44674    0  270   -1.03635   -5.44674   426%     -   52s
     0     0   -5.44667    0  268   -1.03635   -5.44667   426%     -   53s
     0     0   -5.44665    0  268   -1.03635   -5.44665   426%     -   54s
     0     0   -5.44659    0  274   -1.03635   -5.44659   426%     -   55s
     0     0   -5.44659    0  230   -1.03635   -5.44659   426%     -   56s
H    0     2                      -1.0678182   -5.44659   410%     -   60s
     0     2   -5.44659    0  227   -1.06782   -5.44659   410%     -   60s
H   31    32                      -1.0678182   -5.44505   410%  44.7   62s
   105    89   -5.44263   15  218   -1.06782   -5.44263   410%  17.6   65s
   203   155   -5.43984   26  215   -1.06782   -5.43984   409%  11.3   78s
   214   161   -5.43956   27  216   -1.06782   -5.43956   409%  12.1   82s
   801   624   -5.42820   54  198   -1.06782   -5.42820   408%   7.5   85s
  1291   814   -1.21817    8  230   -1.06782   -5.41690   407%   6.7  148s
